1657087200
1657116000
1657116000
1657123200
1657173600
1657202400
1657260000
1657288800
1657519200
1657548000
1657605600
1657634400
1657692000
1657720800
1657778400
1657807200
1657864800
1657893600
1658124000
1658152800
1658210400
1658239200
1658296800
1658325600
1658383200
1658412000
1658469600
1658498400
1658728800
1658764800
1658815200
1658844000
1658844000
1658851200
1658901600
1658930400
1658930400
1658937600
1658988000
1659016800
1659074400
1659103200
